#######################################
### Exact MIP solver for the HHCRSP ###
#######################################
-- Instance file: new-instances/HHCRSP_400_80_43_0.4_R_RC.txt
-- Max threads: 4
-- Time limit: 999999 seconds
-- Use initial solution: No
Trivial flow violations prevented generating 2814921 variables.
Version identifier: 20.1.0.0 | 2020-11-10 | 9bedb6d68
CPXPARAM_Threads                                 4
CPXPARAM_Emphasis_Memory                         1
CPXPARAM_TimeLimit                               999999
Tried aggregator 1 time.
Presolve has eliminated 86916 rows and 20832 columns...
LP Presolve eliminated 86916 rows and 20832 columns.
Reduced LP has 3229584 rows, 3055587 columns, and 96771238 nonzeros.
Presolve time = 100.88 sec. (20379.01 ticks)
Compression time = 22.82 sec. (6.10 ticks)
Compression reduced 1382.36 MB A matrix to 416.10 MB
Symmetry aggregator did 5548024 additional substitutions.
Elapsed time = 125.30 sec. (21226.19 ticks, 1 iterations)

Iteration log . . .
Iteration:     1   Dual objective     =             0.000000
Iteration:  1788   Dual objective     =           502.666667

Dual crossover.
  Dual:  Fixing 2945 variables.
     2944 DMoves:  Infeasibility  3.43203244e-12  Objective  5.02666667e+02
        0 DMoves:  Infeasibility  1.53553096e-12  Objective  5.02666667e+02
  Dual:  Pushed 93, exchanged 2852.
  Primal:  Fixing 2763 variables.
     2762 PMoves:  Infeasibility  5.55111512e-17  Objective  5.02666667e+02
        0 PMoves:  Infeasibility  5.55111512e-17  Objective  5.02666667e+02
  Primal:  Pushed 2549, exchanged 214.

Solution status from MIP model:
-- Processing time: 172.784 sec.
-- Memory used: 2099.31 MB
-- Best bound: inf
-- Obj value: 502.667
-- Gap: inf%
-- Total distance: 1508
-- Total tardiness: 0
-- Largest tardiness: 0
